
===== New CPLEX run =====
Instance: /home/yorig/tuner/mpils-tests/instances/miplib/medium-1/neos-3024952-loue.mps
Config: /scratch/yorig/mpils-results-grid-seconds-10-no-mip-start/medium-1/4proc/seed-1/9_neos-3024952-loue_seed-1_20260503_044429/iterated_local_search/run_5_worker_2/ils_config_10482177096916427918.prm
========================

Selected objective sense:  MINIMIZE
Selected objective  name:  R3706
Selected RHS        name:  B
Selected bound      name:  BOUND
Version identifier: 22.1.2.0 | 2024-11-26 | 0edbb82fd
CPXPARAM_Advance                                 0
CPXPARAM_Preprocessing_Dependency                0
CPXPARAM_Threads                                 8
CPXPARAM_Parallel                                1
CPXPARAM_Preprocessing_CoeffReduce               0
CPXPARAM_MIP_Strategy_SubAlgorithm               3
CPXPARAM_MIP_Strategy_VariableSelect             4
CPXPARAM_MIP_Strategy_PresolveNode               -1
CPXPARAM_MIP_Cuts_FlowCovers                     -1
CPXPARAM_MIP_Cuts_Implied                        -1
CPXPARAM_MIP_Strategy_Probe                      2
CPXPARAM_MIP_Cuts_GUBCovers                      -1
CPXPARAM_MIP_Limits_GomoryCand                   10
CPXPARAM_MIP_Cuts_Gomory                         1
CPXPARAM_MIP_Cuts_PathCut                        1
CPXPARAM_MIP_Cuts_MIRCut                         2
CPXPARAM_MIP_Cuts_Disjunctive                    3
CPXPARAM_MIP_Limits_AggForCut                    2
CPXPARAM_MIP_Strategy_Dive                       1
CPXPARAM_Barrier_Ordering                        1
CPXPARAM_TimeLimit                               10
CPXPARAM_MIP_Limits_CutsFactor                   8
CPXPARAM_MIP_Limits_ProbeTime                    60
Tried aggregator 2 times.
MIP Presolve eliminated 40 rows and 0 columns.
MIP Presolve modified 80 coefficients.
Aggregator did 32 substitutions.
Reduced MIP has 3633 rows, 3223 columns, and 15906 nonzeros.
Reduced MIP has 0 binaries, 3223 generals, 0 SOSs, and 0 indicators.
Presolve time = 0.00 sec. (6.95 ticks)
Tried aggregator 1 time.
Detecting symmetries...
Reduced MIP has 3633 rows, 3223 columns, and 15906 nonzeros.
Reduced MIP has 0 binaries, 3223 generals, 0 SOSs, and 0 indicators.
Presolve time = 0.01 sec. (7.85 ticks)
MIP emphasis: balance optimality and feasibility.
MIP search method: dynamic search.
Parallel mode: deterministic, using up to 8 threads.
Root relaxation solution time = 0.13 sec. (166.79 ticks)

        Nodes                                         Cuts/
   Node  Left     Objective  IInf  Best Integer    Best Bound    ItCnt     Gap

      0     0    22882.0000   397                  22882.0000     3901         
      0     0    23252.0238   680                   Cuts: 478     9229         
      0     0    23339.2038   772                   Cuts: 185    12117         
